units            real
boundary         p p p
atom_style       full

atom_modify      map array
pair_style       lj/cut/coul/long 10
bond_style       harmonic
angle_style      harmonic
dihedral_style   opls
improper_style   cvff
special_bonds    amber
pair_modify      mix arithmetic

read_restart     restart.nve   ####

kspace_style     pppm 1e-5

reset_timestep 0
thermo 1000
thermo_style custom step temp press pe ke etotal
timestep 0.5

fix              nve2 all nve
dump             1 all custom 10 dump.lammpstrj id type xs ys zs vx vy vz
dump_modify      1 sort id
run              80000
write_restart    restart.nve
unfix            nve2
undump           1
