units            real
boundary         p p p
atom_style       full

atom_modify      map array
pair_style       lj/cut/coul/long 10
bond_style       harmonic
angle_style      harmonic
dihedral_style   opls
improper_style   cvff
special_bonds    amber
pair_modify      mix arithmetic

read_restart     restart.npt   ####

kspace_style     pppm 1e-5

timestep 0.5
fix              nve1 all nve
thermo           1000
thermo_style     custom step temp
run              100000
unfix            nve1
write_restart    restart.nve

