&GLOBAL
  PROJECT pbttt
  PRINT_LEVEL LOW
  RUN_TYPE ENERGY_FORCE
&END GLOBAL

&FORCE_EVAL
  METHOD Quickstep
  &SUBSYS
      &CELL
            A     2.5272386729     1.9016838268   -18.7374403151
            B     0.6907989050    -8.8915055960     0.0000000000
            C    -5.5400500000     0.0000000000     0.0000000000
         PERIODIC XYZ
      &END CELL
      &COORD
            C    -1.1645914089     4.4737252830     9.1037727515
            C    -1.0654195326     4.9018145718    10.4191410616
            C    -0.0486730323     5.8541853822    10.6565444304
            C     0.6676071017     6.1613704074     9.4923872636
            C     1.7741657880     7.0515564747     9.2649147382
            C     2.4118350798     7.2854272714     8.0486674874
            C    -1.1849700953    -0.1938758359     9.4691528376
            C     4.1573546806    -0.6807164127     8.1667133613
            C    -0.1302632155     0.7316639060     9.5871987116
            C     0.5074313488     0.9655537196     8.3707640864
            C     1.6138189778     1.8557778206     8.1429168121
            C     2.3294457623     2.1631596927     6.9785722710
            C     3.3462542637     3.1157653838     7.2154135165
            C     3.4458831600     3.5436768425     8.5307818267
            C     2.0367510019     1.6293006517     5.6032441518
            C     0.9579662018     2.4721909177     4.8885981782
            C     0.3069040820     1.7887589844     3.6834060171
            C     4.8200973607     2.6942371869     2.9916197207
            C     4.0017642280     1.9933052334     1.9027870640
            C     2.9828487020     2.9181319411     1.2271149662
            C     2.1523500920     2.2222182833     0.1431540440
            C    -1.3886962072     1.2450738738    18.1972399108
            C    -2.2087105046     0.5457166959    17.1069082589
            C     2.3214359724     1.4672186254    16.4149345881
            C     1.5052855220     0.7688323251    15.3202933249
            C     0.4975124834     1.6964005141    14.6333787629
            C    -0.3410203294     1.0072634173    13.5492304663
            C    -1.3321784055     1.9640558518    12.8774932310
            C     0.2435785240     6.3880444232    12.0318725495
            C     1.3222989634     5.5452939536    12.7468932720
            C     1.9733358108     6.2287068701    13.9522728074
            C     2.9999709301     5.3232286676    14.6440591039
            C    -1.7219928116     6.0241416042    15.7330791350
            C    -0.7031278304     5.0992768629    16.4091259816
            C     0.1276176540     5.7952095375    17.4928995294
            C     1.1414252803     4.8706701202    18.1762539777
            C     4.4889365814     7.4719269887     0.5287705657
            C    -0.0409882936     6.5504250592     1.2207442365
            C     0.7751759728     7.2486335294     2.3153854997
            C     1.7831958858     6.3210843573     3.0021126873
            C     2.6214680082     7.0103802673     4.0864483583
            C     3.6135859499     6.0540195604     4.7574360960
            H    -1.7287951401     4.5425907432    11.2006796972
            H     2.1194050887     6.7920746790     7.1275349215
            H     0.1624136500     1.2250355153    10.5081439031
            H     4.0092233960     3.4752050761     6.4335001322
            H     2.9644629288     1.6196340848     5.0133895307
            H     1.7172896668     0.5792754203     5.6587069752
            H     0.1758605314     2.7176877224     5.6201078481
            H     1.3976538318     3.4368298445     4.5916097492
            H    -0.1856919696     0.8640258826     4.0234905589
            H     1.0716237204     1.4695150930     2.9601408210
            H     4.1332516503     3.1108933806     3.7450521958
            H    -0.2021184060     3.5655145099     2.5597217214
            H     4.6774119656     1.5717258283     1.1435459824
            H     3.4778286114     1.1290537282     2.3425547882
            H     2.3123859341     3.3455103512     1.9887919150
            H     3.5110714992     3.7784454885     0.7858482468
            H     0.2982517035    -0.1079165940    18.1224775240
            H     1.6228344116     1.3621205997     0.5840460146
            H     0.4604804664     3.5737917699     0.2143563172
            H    -0.8575284659     2.1051021686    17.7587838075
            H    -1.5279342599     0.1178258501    16.3555369023
            H     2.8003028351    -0.3149658688    17.5448022391
            H     1.6384404604     1.8947090988    17.1649943239
            H     2.8550272773     2.3272792942    15.9796638495
            H     2.1862692113     0.3431895416    14.5677977218
            H     0.9731205410    -0.0924731545    15.7555640634
            H    -0.1742572191     2.1333740528    15.3881228588
            H     1.0327604459     2.5505337009    14.1881771810
            H     0.3293528359     0.5658888381    12.7957979912
            H    -0.8818971861     0.1562417480    13.9918088065
            H     3.5781878781     1.4638395412    12.1291198648
            H    -2.0043471865     2.4215148304    13.6161231282
            H    -0.8044798106     2.7804377760    12.3644621151
            H     0.5630398591     7.4380696546    11.9764097262
            H    -0.6845260621     6.3977490237    12.6213524219
            H     0.8823506430     4.5808138401    13.0440690754
            H     2.1043931774     5.2996003020    12.0155709765
            H     2.4657355327     7.1534589887    13.6120008913
            H     1.2084198428     6.5479697784    14.6753506292
            H     2.4821619692     4.4519703614    15.0757697287
            H    -1.8530255735     4.9067503040    13.8906266288
            H    -1.1978746814     6.8885519228    15.2934987852
            H    -2.3978368789     6.4457400262    16.4921328422
            H    -1.2315722296     4.2389633155    16.8503927010
            H    -0.0326512465     4.6717206227    15.6474490328
            H     0.6571586068     6.6553262380    17.0518201844
            H    -0.5455226305     6.2236605880    18.2510163645
            H     0.6102575389     4.0106418254    18.6147100811
            H     1.8192909500     4.4436550678    17.4215098818
            H    -0.5200376699     8.3324507402     0.0906892111
            H     3.8085920843     7.8996209876     1.2803292967
            H    -0.5745405101     5.6902055772     1.6558276006
            H     0.6420072184     6.1229345859     0.4706845007
            H     1.3070664474     8.1102756524     1.8803021356
            H     0.0941946431     7.6739016358     3.0680684772
            H     1.2482086136     5.4667923571     3.4471268948
            H     2.4551571987     5.8848411559     2.2471812170
            H     3.1615995226     7.8620942402     3.6440573925
            H     1.9509170484     7.4508466791     4.8400682078
            H     4.2430480643     6.5542358710     5.5058094622
            H     3.0866579696     5.2369643494     5.2700924630
            H     4.2859968861     5.5973289527     4.0182440756
            S     0.0425519097     5.2590113786     8.1279268599
            S     3.2080023854    -0.8908787305    10.5598592384
            S    -0.2358532180     0.0164643120     7.0760069606
            S     2.2393564622     2.7579780361     9.5071898415
      &END COORD
    &KIND C       
      ELEMENT C 
      BASIS_SET DZVP-MOLOPT-SR-GTH-q4
      POTENTIAL GTH-PBE
    &END KIND
    &KIND H       
      ELEMENT H 
      BASIS_SET DZVP-MOLOPT-SR-GTH-q1
      POTENTIAL GTH-PBE
    &END KIND
    &KIND O       
      ELEMENT O 
      BASIS_SET DZVP-MOLOPT-SR-GTH-q6
      POTENTIAL GTH-PBE
    &END KIND
    &KIND N       
      ELEMENT N 
      BASIS_SET DZVP-MOLOPT-SR-GTH-q5
      POTENTIAL GTH-PBE
    &END KIND
    &KIND S       
      ELEMENT S 
      BASIS_SET DZVP-MOLOPT-SR-GTH-q6
      POTENTIAL GTH-PBE
    &END KIND
  &END SUBSYS

  &DFT
    BASIS_SET_FILE_NAME  BASIS_MOLOPT
    POTENTIAL_FILE_NAME  POTENTIAL
    CHARGE    0 #Net charge
    MULTIPLICITY    1 #Spin multiplicity
    &POISSON
      PERIODIC XYZ #Direction(s) of PBC for calculating electrostatics
      PSOLVER PERIODIC #The way to solve Poisson equation
    &END POISSON
    &XC
      &XC_FUNCTIONAL PBE
      &END XC_FUNCTIONAL
      &VDW_POTENTIAL
        POTENTIAL_TYPE PAIR_POTENTIAL
        &PAIR_POTENTIAL
          PARAMETER_FILE_NAME dftd3.dat
          TYPE DFTD3
          REFERENCE_FUNCTIONAL PBE
        &END PAIR_POTENTIAL
      &END VDW_POTENTIAL
    &END XC
    &MGRID
      CUTOFF  600
      REL_CUTOFF  50
    &END MGRID
    &SCF
      MAX_SCF 100
      EPS_SCF 1.0E-08 #Convergence threshold of density matrix of inner SCF
      ADDED_MOS 200
      &DIAGONALIZATION
         ALGORITHM STANDARD #Algorithm for diagonalization. DAVIDSON is faster for large systems
      &END DIAGONALIZATION
      &MIXING #How to mix old and new density matrices
        METHOD BROYDEN_MIXING #PULAY_MIXING is also a good alternative
        ALPHA 0.4 #Default. Mixing 40% of new density matrix with the old one
        NBROYDEN 8 #Default is 4. Number of previous steps stored for the actual mixing scheme
      &END MIXING
      &PRINT
        &RESTART OFF
        &END RESTART
      &END PRINT
    &END SCF
  &END DFT
  &PRINT
    &STRESS_TENSOR ON #Print stress tensor
    &END STRESS_TENSOR
  &END PRINT
  STRESS_TENSOR ANALYTICAL #Compute full stress tensor analytically
&END FORCE_EVAL

